(set-logic QF_S)
(declare-fun _var_0xINPUT_100564_() String)
(declare-fun __woorpje_diseq_pref0_() String)
(declare-fun __woorpje_diseq_suf_l0_() String)
(declare-fun __woorpje_diseq_suf_r0_() String)
(assert (=(str.++  "file:" "")(str.++ _var_0xINPUT_100564_  "")) )
(check-sat)
